% clingo version 5.4.0
% Reading from .\final-instance.lp ...
% Solving...
% Answer: 32
ANSWER
truck_at(6,3,1,1). truck_at(5,4,1,1). truck_at(4,4,1,2). truck_at(4,4,1,1). truck_at(3,4,1,1). truck_at(2,4,1,2). truck_at(2,4,1,1). truck_at(1,4,1,1). truck_at(1,4,1,3). truck_at(2,3,1,3). truck_at(5,3,1,3). truck_at(6,4,1,3). truck_at(6,4,1,4). truck_at(5,3,1,4). truck_at(4,3,1,4). truck_at(3,3,1,4). truck_at(2,3,1,4). truck_at(6,1,2,1). drive(6,1,1,1). truck_at(5,2,2,1). drive(5,2,1,1). truck_at(4,1,2,1). drive(4,1,1,1). truck_at(3,2,2,1). drive(3,2,1,1). truck_at(2,1,2,1). drive(2,1,1,1). truck_at(1,2,2,1). drive(1,2,1,1). truck_at(1,1,1,2). truck_at(3,2,1,2). truck_at(5,2,1,2). truck_at(6,1,1,2). truck_at(1,4,1,5). truck_at(2,3,1,5). truck_at(4,3,1,5). truck_at(5,4,1,5). truck_at(6,4,1,5). truck_at(1,4,2,2). drive(1,4,1,2). truck_at(2,1,2,2). drive(2,1,1,2). truck_at(4,2,2,2). drive(4,2,1,2). truck_at(5,3,2,2). drive(5,3,1,2). truck_at(6,3,2,2). drive(6,3,1,2). truck_at(4,2,1,3). truck_at(3,2,1,3). truck_at(6,1,2,3). drive(6,1,1,3). truck_at(4,3,2,3). drive(4,3,1,3). truck_at(3,3,2,3). drive(3,3,1,3). truck_at(2,2,2,3). drive(2,2,1,3). truck_at(1,2,2,3). drive(1,2,1,3). truck_at(1,1,1,4). truck_at(1,4,3,1). drive(1,4,2,1). truck_at(2,4,3,1). drive(2,4,2,1). truck_at(4,4,3,1). drive(4,4,2,1). truck_at(1,4,2,4). drive(1,4,1,4). truck_at(2,4,2,4). drive(2,4,1,4). truck_at(3,1,2,4). drive(3,1,1,4). truck_at(4,2,2,4). drive(4,2,1,4). truck_at(5,2,2,4). drive(5,2,1,4). truck_at(3,1,1,5). truck_at(6,2,3,2). drive(6,2,2,2). truck_at(4,3,3,2). drive(4,3,2,2). truck_at(2,3,3,2). drive(2,3,2,2). truck_at(6,1,2,5). drive(6,1,1,5). truck_at(5,2,2,5). drive(5,2,1,5). truck_at(4,2,2,5). drive(4,2,1,5). truck_at(3,3,2,5). drive(3,3,1,5). truck_at(2,1,2,5). drive(2,1,1,5). truck_at(1,1,2,5). drive(1,1,1,5). truck_at(1,3,3,3). drive(1,3,2,3). truck_at(2,3,3,3). drive(2,3,2,3). truck_at(4,1,3,3). drive(4,1,2,3). truck_at(6,4,3,3). drive(6,4,2,3). truck_at(5,3,3,4). drive(5,3,2,4). truck_at(4,3,3,4). drive(4,3,2,4). truck_at(2,2,3,4). drive(2,2,2,4). truck_at(1,1,4,1). drive(1,1,3,1). truck_at(1,4,3,5). drive(1,4,2,5). truck_at(2,4,3,5). drive(2,4,2,5). truck_at(3,2,3,5). drive(3,2,2,5). truck_at(4,3,3,5). drive(4,3,2,5). truck_at(5,3,3,5). drive(5,3,2,5). truck_at(6,3,3,5). drive(6,3,2,5). truck_at(4,2,4,2). drive(4,2,3,2). truck_at(6,4,4,2). drive(6,4,3,2). truck_at(4,3,4,3). drive(4,3,3,3). truck_at(2,2,4,3). drive(2,2,3,3). truck_at(1,1,4,3). drive(1,1,3,3). truck_at(2,3,4,4). drive(2,3,3,4). truck_at(4,2,4,4). drive(4,2,3,4). truck_at(5,2,4,4). drive(5,2,3,4). truck_at(5,2,4,5). drive(5,2,3,5). truck_at(4,2,4,5). drive(4,2,3,5). truck_at(3,4,4,5). drive(3,4,3,5). truck_at(2,3,5,3). drive(2,3,4,3). truck_at(5,4,5,4). drive(5,4,4,4). truck_at(4,3,5,4). drive(4,3,4,4). truck_at(4,4,5,5). drive(4,4,4,5). truck_at(5,4,5,5). drive(5,4,4,5). unload(6,2,3,1,1). load(6,2,3,1,1). unload(5,2,3,1,1). load(5,2,3,1,1). unload(4,2,3,1,1). load(4,2,3,1,1). load(3,2,0,1,1). unload(3,2,0,1,1). unload(2,2,3,1,1). load(2,2,3,1,1). unload(1,2,3,1,1). load(1,2,3,1,1). load(6,1,0,1,1). unload(6,1,0,1,1). load(5,1,0,1,1). unload(5,1,0,1,1). load(4,1,0,1,1). unload(4,1,0,1,1). unload(3,1,3,1,1). load(3,1,3,1,1). load(2,1,0,1,1). unload(2,1,0,1,1). load(1,1,0,1,1). unload(1,1,0,1,1). load(6,4,0,1,1). unload(6,4,0,1,1). load(5,4,0,1,1). unload(5,4,0,1,1). load(4,4,0,1,1). unload(4,4,0,1,1). load(3,4,0,1,1). unload(3,4,0,1,1). load(2,4,0,1,1). unload(2,4,0,1,1). load(1,4,0,1,1). unload(1,4,0,1,1). load(6,3,0,1,1). unload(6,3,0,1,1). load(5,3,0,1,1). unload(5,3,0,1,1). load(4,3,0,1,1). unload(4,3,0,1,1). load(3,3,0,1,1). unload(3,3,0,1,1). load(2,3,0,1,1). unload(2,3,0,1,1). load(1,3,0,1,1). unload(1,3,0,1,1). load(1,3,0,1,2). unload(1,3,0,1,2). load(2,3,0,1,2). unload(2,3,0,1,2). load(4,3,0,1,2). unload(4,3,0,1,2). unload(5,3,1,1,2). load(5,3,1,1,2). load(6,3,0,1,2). unload(6,3,0,1,2). unload(1,4,1,1,2). load(1,4,1,1,2). load(2,4,0,1,2). unload(2,4,0,1,2). load(4,4,0,1,2). unload(4,4,0,1,2). unload(5,4,2,1,2). load(5,4,2,1,2). unload(6,4,3,1,2). load(6,4,3,1,2). load(1,1,0,1,2). unload(1,1,0,1,2). load(2,1,0,1,2). unload(2,1,0,1,2). load(4,1,0,1,2). unload(4,1,0,1,2). load(5,1,0,1,2). unload(5,1,0,1,2). load(6,1,0,1,2). unload(6,1,0,1,2). load(1,2,0,1,2). unload(1,2,0,1,2). unload(2,2,3,1,2). load(2,2,3,1,2). unload(4,2,3,1,2). load(4,2,3,1,2). load(5,2,0,1,2). unload(5,2,0,1,2). load(6,2,0,1,2). unload(6,2,0,1,2). load(1,3,0,2,1). unload(1,3,0,2,1). load(2,3,0,2,1). unload(2,3,0,2,1). load(4,3,0,2,1). unload(4,3,0,2,1). load(1,4,0,2,1). unload(1,4,0,2,1). unload(2,4,1,2,1). load(2,4,1,2,1). load(4,4,0,2,1). unload(4,4,0,2,1). load(1,1,0,2,1). unload(1,1,0,2,1). load(2,1,0,2,1). unload(2,1,0,2,1). load(4,1,0,2,1). unload(4,1,0,2,1). load(1,2,0,2,1). unload(1,2,0,2,1). load(2,2,0,2,1). unload(2,2,0,2,1). load(4,2,0,2,1). unload(4,2,0,2,1). unload(6,2,3,1,3). load(6,2,3,1,3). load(4,2,0,1,3). unload(4,2,0,1,3). load(3,2,0,1,3). unload(3,2,0,1,3). load(2,2,0,1,3). unload(2,2,0,1,3). unload(1,2,1,1,3). load(1,2,3,1,3). load(6,1,0,1,3). unload(6,1,0,1,3). load(4,1,0,1,3). unload(4,1,0,1,3). load(3,1,0,1,3). unload(3,1,0,1,3). load(2,1,0,1,3). unload(2,1,0,1,3). load(1,1,0,1,3). unload(1,1,0,1,3). load(6,4,0,1,3). unload(6,4,0,1,3). unload(4,4,1,1,3). load(4,4,1,1,3). unload(3,4,2,1,3). load(3,4,2,1,3). load(2,4,0,1,3). unload(2,4,0,1,3). load(1,4,0,1,3). unload(1,4,0,1,3). load(6,3,0,1,3). unload(6,3,0,1,3). unload(4,3,1,1,3). load(4,3,1,1,3). unload(3,3,1,1,3). load(3,3,1,1,3). load(2,3,0,1,3). unload(2,3,0,1,3). load(1,3,0,1,3). unload(1,3,0,1,3). unload(1,2,3,3,1). load(1,2,3,3,1). load(1,1,0,3,1). unload(1,1,0,3,1). load(1,4,0,3,1). unload(1,4,0,3,1). load(1,3,0,3,1). unload(1,3,0,3,1). load(6,2,0,2,2). unload(6,2,0,2,2). load(4,2,0,2,2). unload(4,2,0,2,2). load(2,2,0,2,2). unload(2,2,0,2,2). unload(6,1,1,2,2). load(6,1,1,2,2). load(4,1,0,2,2). unload(4,1,0,2,2). load(2,1,0,2,2). unload(2,1,0,2,2). load(6,4,0,2,2). unload(6,4,0,2,2). unload(4,4,2,2,2). load(4,4,2,2,2). unload(2,4,3,2,2). load(2,4,3,2,2). load(6,3,0,2,2). unload(6,3,0,2,2). unload(4,3,1,2,2). load(4,3,1,2,2). load(2,3,0,2,2). unload(2,3,0,2,2). load(1,3,0,1,4). unload(1,3,0,1,4). load(2,3,0,1,4). unload(2,3,0,1,4). load(3,3,0,1,4). unload(3,3,0,1,4). load(4,3,0,1,4). unload(4,3,0,1,4). load(5,3,0,1,4). unload(5,3,0,1,4). load(1,4,0,1,4). unload(1,4,0,1,4). load(2,4,0,1,4). unload(2,4,0,1,4). load(3,4,0,1,4). unload(3,4,0,1,4). load(4,4,0,1,4). unload(4,4,0,1,4). load(5,4,0,1,4). unload(5,4,0,1,4). load(1,1,0,1,4). unload(1,1,0,1,4). load(2,1,0,1,4). unload(2,1,0,1,4). load(3,1,0,1,4). unload(3,1,0,1,4). load(4,1,0,1,4). unload(4,1,0,1,4). unload(5,1,3,1,4). load(5,1,3,1,4). load(1,2,0,1,4). unload(1,2,0,1,4). load(2,2,0,1,4). unload(2,2,0,1,4). unload(3,2,1,1,4). load(3,2,1,1,4). load(4,2,0,1,4). unload(4,2,0,1,4). load(5,2,0,1,4). unload(5,2,0,1,4). load(4,3,0,3,2). unload(4,3,0,3,2). unload(6,3,1,3,2). load(6,3,1,3,2). load(4,4,0,3,2). unload(4,4,0,3,2). load(6,4,0,3,2). unload(6,4,0,3,2). unload(4,1,3,3,2). load(4,1,3,3,2). load(6,1,0,3,2). unload(6,1,0,3,2). load(4,2,0,3,2). unload(4,2,0,3,2). load(6,2,0,3,2). unload(6,2,0,3,2). unload(1,3,1,2,3). load(1,3,1,2,3). load(2,3,0,2,3). unload(2,3,0,2,3). load(4,3,0,2,3). unload(4,3,0,2,3). load(6,3,0,2,3). unload(6,3,0,2,3). load(1,4,0,2,3). unload(1,4,0,2,3). unload(2,4,3,2,3). load(2,4,3,2,3). load(4,4,0,2,3). unload(4,4,0,2,3). load(6,4,0,2,3). unload(6,4,0,2,3). load(1,1,0,2,3). unload(1,1,0,2,3). load(2,1,0,2,3). unload(2,1,0,2,3). load(4,1,0,2,3). unload(4,1,0,2,3). load(6,1,0,2,3). unload(6,1,0,2,3). load(1,2,0,2,3). unload(1,2,0,2,3). load(2,2,0,2,3). unload(2,2,0,2,3). unload(4,2,2,2,3). load(4,2,2,2,3). load(6,2,0,2,3). unload(6,2,0,2,3). unload(6,2,3,1,5). load(6,2,3,1,5). unload(5,2,2,1,5). load(5,2,2,1,5). load(4,2,0,1,5). unload(4,2,0,1,5). load(3,2,0,1,5). unload(3,2,0,1,5). load(2,2,0,1,5). unload(2,2,0,1,5). unload(1,2,3,1,5). load(1,2,3,1,5). load(6,1,0,1,5). unload(6,1,0,1,5). unload(5,1,1,1,5). load(5,1,1,1,5). unload(4,1,2,1,5). load(4,1,2,1,5). load(3,1,0,1,5). unload(3,1,0,1,5). load(2,1,0,1,5). unload(2,1,0,1,5). load(1,1,0,1,5). unload(1,1,0,1,5). load(6,4,0,1,5). unload(6,4,0,1,5). load(5,4,0,1,5). unload(5,4,0,1,5). load(4,4,0,1,5). unload(4,4,0,1,5). unload(3,4,3,1,5). load(3,4,3,1,5). load(2,4,0,1,5). unload(2,4,0,1,5). load(1,4,0,1,5). unload(1,4,0,1,5). load(6,3,0,1,5). unload(6,3,0,1,5). load(5,3,0,1,5). unload(5,3,0,1,5). load(4,3,0,1,5). unload(4,3,0,1,5). load(3,3,0,1,5). unload(3,3,0,1,5). load(2,3,0,1,5). unload(2,3,0,1,5). load(1,3,0,1,5). unload(1,3,0,1,5). load(4,2,0,3,3). unload(4,2,0,3,3). load(2,2,0,3,3). unload(2,2,0,3,3). unload(1,2,3,3,3). load(1,2,1,3,3). load(4,1,0,3,3). unload(4,1,0,3,3). unload(2,1,2,3,3). load(2,1,2,3,3). load(1,1,0,3,3). unload(1,1,0,3,3). unload(4,4,3,3,3). load(4,4,3,3,3). load(2,4,0,3,3). unload(2,4,0,3,3). load(1,4,0,3,3). unload(1,4,0,3,3). load(4,3,0,3,3). unload(4,3,0,3,3). load(2,3,0,3,3). unload(2,3,0,3,3). load(1,3,0,3,3). unload(1,3,0,3,3). load(5,2,0,2,4). unload(5,2,0,2,4). load(4,2,0,2,4). unload(4,2,0,2,4). unload(2,2,3,2,4). load(2,2,3,2,4). load(5,1,0,2,4). unload(5,1,0,2,4). load(4,1,0,2,4). unload(4,1,0,2,4). load(2,1,0,2,4). unload(2,1,0,2,4). load(5,4,0,2,4). unload(5,4,0,2,4). load(4,4,0,2,4). unload(4,4,0,2,4). load(2,4,0,2,4). unload(2,4,0,2,4). unload(5,3,3,2,4). load(5,3,3,2,4). unload(4,3,1,2,4). load(4,3,2,2,4). load(2,3,0,2,4). unload(2,3,0,2,4). load(2,3,0,3,4). unload(2,3,0,3,4). load(4,3,0,3,4). unload(4,3,0,3,4). load(5,3,0,3,4). unload(5,3,0,3,4). unload(2,4,3,3,4). load(2,4,3,3,4). load(4,4,0,3,4). unload(4,4,0,3,4). load(5,4,0,3,4). unload(5,4,0,3,4). load(2,1,0,3,4). unload(2,1,0,3,4). load(4,1,0,3,4). unload(4,1,0,3,4). load(5,1,0,3,4). unload(5,1,0,3,4). load(2,2,0,3,4). unload(2,2,0,3,4). load(4,2,0,3,4). unload(4,2,0,3,4). load(5,2,0,3,4). unload(5,2,0,3,4). load(2,3,0,4,3). unload(2,3,0,4,3). unload(2,4,3,4,3). load(2,4,3,4,3). load(2,1,0,4,3). unload(2,1,0,4,3). load(2,2,0,4,3). unload(2,2,0,4,3). load(1,3,0,2,5). unload(1,3,0,2,5). load(2,3,0,2,5). unload(2,3,0,2,5). load(3,3,0,2,5). unload(3,3,0,2,5). load(4,3,0,2,5). unload(4,3,0,2,5). unload(5,3,2,2,5). load(5,3,2,2,5). load(6,3,0,2,5). unload(6,3,0,2,5). unload(1,4,3,2,5). load(1,4,3,2,5). load(2,4,0,2,5). unload(2,4,0,2,5). load(3,4,0,2,5). unload(3,4,0,2,5). unload(4,4,3,2,5). load(4,4,3,2,5). unload(5,4,1,2,5). load(5,4,1,2,5). unload(6,4,3,2,5). load(6,4,3,2,5). load(1,1,0,2,5). unload(1,1,0,2,5). load(2,1,0,2,5). unload(2,1,0,2,5). load(3,1,0,2,5). unload(3,1,0,2,5). load(4,1,0,2,5). unload(4,1,0,2,5). load(5,1,0,2,5). unload(5,1,0,2,5). load(6,1,0,2,5). unload(6,1,0,2,5). load(1,2,0,2,5). unload(1,2,0,2,5). load(2,2,0,2,5). unload(2,2,0,2,5). load(3,2,0,2,5). unload(3,2,0,2,5). load(4,2,0,2,5). unload(4,2,0,2,5). load(5,2,0,2,5). unload(5,2,0,2,5). load(6,2,0,2,5). unload(6,2,0,2,5). load(5,2,0,3,5). unload(5,2,0,3,5). load(4,2,0,3,5). unload(4,2,0,3,5). load(3,2,0,3,5). unload(3,2,0,3,5). load(5,1,0,3,5). unload(5,1,0,3,5). load(4,1,0,3,5). unload(4,1,0,3,5). load(3,1,0,3,5). unload(3,1,0,3,5). load(5,4,0,3,5). unload(5,4,0,3,5). load(4,4,0,3,5). unload(4,4,0,3,5). load(3,4,0,3,5). unload(3,4,0,3,5). load(5,3,0,3,5). unload(5,3,0,3,5). load(4,3,0,3,5). unload(4,3,0,3,5). load(3,3,0,3,5). unload(3,3,0,3,5). load(5,2,0,4,4). unload(5,2,0,4,4). load(4,2,0,4,4). unload(4,2,0,4,4). load(5,1,0,4,4). unload(5,1,0,4,4). load(4,1,0,4,4). unload(4,1,0,4,4). unload(5,4,3,4,4). load(5,4,3,4,4). unload(4,4,1,4,4). load(4,4,1,4,4). load(5,3,0,4,4). unload(5,3,0,4,4). unload(4,3,2,4,4). load(4,3,1,4,4). load(4,3,0,4,5). unload(4,3,0,4,5). unload(5,3,1,4,5). load(5,3,1,4,5). load(4,4,0,4,5). unload(4,4,0,4,5). unload(5,4,1,4,5). load(5,4,1,4,5). load(4,1,0,4,5). unload(4,1,0,4,5). load(5,1,0,4,5). unload(5,1,0,4,5). load(4,2,0,4,5). unload(4,2,0,4,5). load(5,2,0,4,5). unload(5,2,0,4,5).
COST 166
% 
% TIME LIMIT     : 1
% Models         : 32+
%   Optimum      : unknown
% Optimization   : 166
% Calls          : 1
% Time           : 7200.012s (Solving: 7196.01s 1st Model: 84.32s Unsat: 0.00s)
% CPU Time       : 56869.234s
% Threads        : 8        (Winner: 8)
